c Random generated cnf formula, satisfiable: false
p cnf 10 50
9 -10 7 0
-2 -1 9 0
9 3 4 0
3 10 4 0
4 -5 7 0
-9 -3 7 0
-9 1 2 0
8 2 -1 0
10 -3 -4 0
4 8 10 0
3 2 -6 0
1 -7 8 0
-9 -1 -5 0
3 -2 5 0
7 -3 8 0
-2 -4 10 0
-6 -10 3 0
-4 -10 -5 0
10 2 -6 0
1 -3 -5 0
4 -8 3 0
-6 -9 -10 0
2 9 7 0
10 2 -6 0
2 -7 -1 0
3 -9 -1 0
10 5 -7 0
6 -3 5 0
-7 6 5 0
-10 3 -6 0
-3 -2 -6 0
-1 -2 -3 0
10 -1 7 0
-4 -8 -6 0
-9 4 7 0
2 -8 10 0
-3 -6 7 0
9 -1 5 0
-9 5 -4 0
-7 3 -10 0
2 5 4 0
9 8 -7 0
-3 -2 5 0
-5 -7 3 0
-9 4 -3 0
1 -7 -3 0
-10 1 2 0
-2 -4 1 0
2 10 -8 0
-7 -6 9 0
